============================[ Problem Statistics ]=============================
|                                                                             |
|  Number of variables:           999                                         |
|  Number of clauses:           11988                                         |
|  Parse time:                   0.00 s                                       |
|  Eliminated clauses:           0.00 Mb                                      |
|  Simplification time:          0.00 s                                       |
|                                                                             |
============================[ Search Statistics ]==============================
| Conflicts |          ORIGINAL         |          LEARNT          | Progress |
|           |    Vars  Clauses Literals |    Limit  Clauses Lit/Cl |          |
===============================================================================
===============================================================================
restarts              : 1
conflicts             : 3              (453 /sec)
decisions             : 4              (0.00 % random) (604 /sec)
propagations          : 848            (127942 /sec)
conflict literals     : 3              (0.00 % deleted)
Memory used           : 5.07 MB
CPU time              : 0.006628 s

SATISFIABLE
